p cnf 200 1110
-101 -14 0
-101 -80 0
-101 73 0
-101 -33 0
-101 -24 0
-101 11 0
-101 -10 0
-101 61 0
-101 54 0
-101 -58 0
101 14 80 -73 33 24 -11 10 -61 -54 58 0
-102 -2 0
-102 -88 0
-102 -77 0
-102 -42 0
-102 -62 0
-102 32 0
-102 -17 0
-102 -100 0
-102 -84 0
-102 51 0
102 2 88 77 42 62 -32 17 100 84 -51 0
-103 55 0
-103 -9 0
-103 49 0
-103 37 0
-103 -41 0
-103 65 0
-103 -98 0
-103 -11 0
-103 -43 0
-103 54 0
103 -55 9 -49 -37 41 -65 98 11 43 -54 0
-104 -40 0
-104 -84 0
-104 -53 0
-104 8 0
-104 49 0
-104 75 0
-104 -28 0
-104 -56 0
-104 37 0
-104 -90 0
104 40 84 53 -8 -49 -75 28 56 -37 90 0
-105 -16 0
-105 7 0
-105 -88 0
-105 14 0
-105 -61 0
-105 -77 0
-105 32 0
-105 -38 0
-105 56 0
-105 96 0
105 16 -7 88 -14 61 77 -32 38 -56 -96 0
-106 -33 0
-106 -70 0
-106 16 0
-106 -84 0
-106 -87 0
-106 38 0
-106 79 0
-106 -15 0
-106 24 0
-106 66 0
106 33 70 -16 84 87 -38 -79 15 -24 -66 0
-107 -52 0
-107 23 0
-107 56 0
-107 -37 0
-107 -20 0
-107 68 0
-107 -14 0
-107 64 0
-107 -51 0
-107 -93 0
107 52 -23 -56 37 20 -68 14 -64 51 93 0
-108 -34 0
-108 -85 0
-108 62 0
-108 -44 0
-108 -83 0
-108 -19 0
-108 -64 0
-108 -1 0
-108 20 0
-108 30 0
108 34 85 -62 44 83 19 64 1 -20 -30 0
-109 -2 0
-109 21 0
-109 -76 0
-109 17 0
-109 -49 0
-109 32 0
-109 55 0
-109 5 0
-109 28 0
-109 20 0
109 2 -21 76 -17 49 -32 -55 -5 -28 -20 0
-110 88 0
-110 100 0
-110 53 0
-110 61 0
-110 -10 0
-110 -25 0
-110 -31 0
-110 -33 0
-110 77 0
-110 24 0
110 -88 -100 -53 -61 10 25 31 33 -77 -24 0
101 102 103 104 105 106 107 108 109 110 0
-111 82 0
-111 59 0
-111 -88 0
-111 75 0
-111 81 0
-111 11 0
-111 24 0
-111 -15 0
-111 2 0
-111 -6 0
111 -82 -59 88 -75 -81 -11 -24 15 -2 6 0
-112 65 0
-112 -74 0
-112 4 0
-112 -96 0
-112 -72 0
-112 47 0
-112 -64 0
-112 -7 0
-112 48 0
-112 86 0
112 -65 74 -4 96 72 -47 64 7 -48 -86 0
-113 5 0
-113 -87 0
-113 69 0
-113 -99 0
-113 -85 0
-113 -17 0
-113 29 0
-113 41 0
-113 67 0
-113 -18 0
113 -5 87 -69 99 85 17 -29 -41 -67 18 0
-114 96 0
-114 50 0
-114 -56 0
-114 -3 0
-114 -61 0
-114 99 0
-114 63 0
-114 -40 0
-114 -32 0
-114 -98 0
114 -96 -50 56 3 61 -99 -63 40 32 98 0
-115 83 0
-115 -98 0
-115 35 0
-115 29 0
-115 -38 0
-115 67 0
-115 87 0
-115 82 0
-115 61 0
-115 46 0
115 -83 98 -35 -29 38 -67 -87 -82 -61 -46 0
-116 66 0
-116 -19 0
-116 -29 0
-116 -26 0
-116 80 0
-116 -33 0
-116 -1 0
-116 90 0
-116 -100 0
-116 14 0
116 -66 19 29 26 -80 33 1 -90 100 -14 0
-117 -54 0
-117 43 0
-117 -37 0
-117 32 0
-117 -25 0
-117 55 0
-117 -35 0
-117 -82 0
-117 -29 0
-117 -81 0
117 54 -43 37 -32 25 -55 35 82 29 81 0
-118 -97 0
-118 63 0
-118 -7 0
-118 -83 0
-118 35 0
-118 32 0
-118 48 0
-118 -18 0
-118 91 0
-118 -72 0
118 97 -63 7 83 -35 -32 -48 18 -91 72 0
-119 -99 0
-119 -95 0
-119 -13 0
-119 7 0
-119 100 0
-119 53 0
-119 -84 0
-119 -9 0
-119 -26 0
-119 -71 0
119 99 95 13 -7 -100 -53 84 9 26 71 0
-120 68 0
-120 22 0
-120 98 0
-120 64 0
-120 -52 0
-120 -94 0
-120 14 0
-120 95 0
-120 -67 0
-120 63 0
120 -68 -22 -98 -64 52 94 -14 -95 67 -63 0
111 112 113 114 115 116 117 118 119 120 0
-121 6 0
-121 -19 0
-121 85 0
-121 72 0
-121 -88 0
-121 61 0
-121 63 0
-121 -84 0
-121 -14 0
-121 -32 0
121 -6 19 -85 -72 88 -61 -63 84 14 32 0
-122 -35 0
-122 -73 0
-122 50 0
-122 -10 0
-122 92 0
-122 43 0
-122 66 0
-122 -83 0
-122 -6 0
-122 42 0
122 35 73 -50 10 -92 -43 -66 83 6 -42 0
-123 -94 0
-123 -61 0
-123 -17 0
-123 -23 0
-123 46 0
-123 -10 0
-123 78 0
-123 91 0
-123 -86 0
-123 35 0
123 94 61 17 23 -46 10 -78 -91 86 -35 0
-124 -19 0
-124 -97 0
-124 55 0
-124 -21 0
-124 81 0
-124 2 0
-124 -85 0
-124 3 0
-124 41 0
-124 83 0
124 19 97 -55 21 -81 -2 85 -3 -41 -83 0
-125 80 0
-125 5 0
-125 38 0
-125 92 0
-125 -77 0
-125 21 0
-125 -7 0
-125 -86 0
-125 -60 0
-125 41 0
125 -80 -5 -38 -92 77 -21 7 86 60 -41 0
-126 55 0
-126 -6 0
-126 77 0
-126 37 0
-126 -26 0
-126 -46 0
-126 -12 0
-126 40 0
-126 -98 0
-126 20 0
126 -55 6 -77 -37 26 46 12 -40 98 -20 0
-127 86 0
-127 -64 0
-127 -56 0
-127 66 0
-127 20 0
-127 -71 0
-127 -67 0
-127 54 0
-127 -97 0
-127 82 0
127 -86 64 56 -66 -20 71 67 -54 97 -82 0
-128 -17 0
-128 -70 0
-128 18 0
-128 -10 0
-128 -19 0
-128 -3 0
-128 -55 0
-128 32 0
-128 35 0
-128 -82 0
128 17 70 -18 10 19 3 55 -32 -35 82 0
-129 -65 0
-129 -48 0
-129 49 0
-129 96 0
-129 3 0
-129 -50 0
-129 52 0
-129 -75 0
-129 90 0
-129 -33 0
129 65 48 -49 -96 -3 50 -52 75 -90 33 0
-130 8 0
-130 40 0
-130 -23 0
-130 -41 0
-130 -67 0
-130 54 0
-130 -69 0
-130 -66 0
-130 34 0
-130 -58 0
130 -8 -40 23 41 67 -54 69 66 -34 58 0
121 122 123 124 125 126 127 128 129 130 0
-131 -63 0
-131 65 0
-131 -100 0
-131 98 0
-131 -22 0
-131 19 0
-131 -50 0
-131 -84 0
-131 -3 0
-131 -68 0
131 63 -65 100 -98 22 -19 50 84 3 68 0
-132 31 0
-132 -65 0
-132 -54 0
-132 -95 0
-132 -24 0
-132 -64 0
-132 75 0
-132 -8 0
-132 -3 0
-132 -66 0
132 -31 65 54 95 24 64 -75 8 3 66 0
-133 3 0
-133 -63 0
-133 78 0
-133 -21 0
-133 -70 0
-133 29 0
-133 -92 0
-133 12 0
-133 -80 0
-133 -64 0
133 -3 63 -78 21 70 -29 92 -12 80 64 0
-134 84 0
-134 95 0
-134 82 0
-134 20 0
-134 -23 0
-134 -37 0
-134 -52 0
-134 41 0
-134 15 0
-134 -76 0
134 -84 -95 -82 -20 23 37 52 -41 -15 76 0
-135 82 0
-135 5 0
-135 -88 0
-135 -100 0
-135 33 0
-135 -97 0
-135 -77 0
-135 -9 0
-135 -12 0
-135 93 0
135 -82 -5 88 100 -33 97 77 9 12 -93 0
-136 85 0
-136 32 0
-136 5 0
-136 6 0
-136 71 0
-136 11 0
-136 67 0
-136 84 0
-136 56 0
-136 34 0
136 -85 -32 -5 -6 -71 -11 -67 -84 -56 -34 0
-137 35 0
-137 -14 0
-137 -90 0
-137 -50 0
-137 -37 0
-137 91 0
-137 -60 0
-137 26 0
-137 -38 0
-137 68 0
137 -35 14 90 50 37 -91 60 -26 38 -68 0
-138 -82 0
-138 -26 0
-138 45 0
-138 39 0
-138 20 0
-138 50 0
-138 -7 0
-138 71 0
-138 43 0
-138 -9 0
138 82 26 -45 -39 -20 -50 7 -71 -43 9 0
-139 85 0
-139 -58 0
-139 -41 0
-139 -97 0
-139 42 0
-139 -61 0
-139 3 0
-139 -50 0
-139 -79 0
-139 24 0
139 -85 58 41 97 -42 61 -3 50 79 -24 0
-140 -62 0
-140 96 0
-140 -5 0
-140 -17 0
-140 25 0
-140 -16 0
-140 3 0
-140 59 0
-140 -19 0
-140 -22 0
140 62 -96 5 17 -25 16 -3 -59 19 22 0
131 132 133 134 135 136 137 138 139 140 0
-141 54 0
-141 78 0
-141 40 0
-141 -81 0
-141 -16 0
-141 -55 0
-141 -41 0
-141 87 0
-141 73 0
-141 47 0
141 -54 -78 -40 81 16 55 41 -87 -73 -47 0
-142 -69 0
-142 -73 0
-142 90 0
-142 18 0
-142 49 0
-142 17 0
-142 59 0
-142 78 0
-142 -9 0
-142 -1 0
142 69 73 -90 -18 -49 -17 -59 -78 9 1 0
-143 -77 0
-143 91 0
-143 37 0
-143 72 0
-143 -58 0
-143 -22 0
-143 93 0
-143 -17 0
-143 89 0
-143 -16 0
143 77 -91 -37 -72 58 22 -93 17 -89 16 0
-144 74 0
-144 89 0
-144 -49 0
-144 53 0
-144 -94 0
-144 59 0
-144 15 0
-144 35 0
-144 -38 0
-144 11 0
144 -74 -89 49 -53 94 -59 -15 -35 38 -11 0
-145 90 0
-145 10 0
-145 11 0
-145 -25 0
-145 -68 0
-145 84 0
-145 59 0
-145 -49 0
-145 40 0
-145 -23 0
145 -90 -10 -11 25 68 -84 -59 49 -40 23 0
-146 -18 0
-146 -22 0
-146 -7 0
-146 23 0
-146 3 0
-146 -89 0
-146 77 0
-146 -28 0
-146 90 0
-146 97 0
146 18 22 7 -23 -3 89 -77 28 -90 -97 0
-147 -67 0
-147 73 0
-147 61 0
-147 -46 0
-147 4 0
-147 -1 0
-147 49 0
-147 23 0
-147 -6 0
-147 32 0
147 67 -73 -61 46 -4 1 -49 -23 6 -32 0
-148 -64 0
-148 61 0
-148 -27 0
-148 30 0
-148 3 0
-148 60 0
-148 94 0
-148 -1 0
-148 31 0
-148 -79 0
148 64 -61 27 -30 -3 -60 -94 1 -31 79 0
-149 33 0
-149 6 0
-149 -96 0
-149 -22 0
-149 2 0
-149 16 0
-149 -14 0
-149 -49 0
-149 -8 0
-149 38 0
149 -33 -6 96 22 -2 -16 14 49 8 -38 0
-150 33 0
-150 -3 0
-150 -96 0
-150 23 0
-150 78 0
-150 -93 0
-150 87 0
-150 -1 0
-150 43 0
-150 -18 0
150 -33 3 96 -23 -78 93 -87 1 -43 18 0
141 142 143 144 145 146 147 148 149 150 0
-151 -34 0
-151 -8 0
-151 57 0
-151 -80 0
-151 -98 0
-151 47 0
-151 -24 0
-151 74 0
-151 -85 0
-151 -64 0
151 34 8 -57 80 98 -47 24 -74 85 64 0
-152 -88 0
-152 -23 0
-152 19 0
-152 -41 0
-152 -16 0
-152 -86 0
-152 8 0
-152 57 0
-152 -61 0
-152 53 0
152 88 23 -19 41 16 86 -8 -57 61 -53 0
-153 57 0
-153 99 0
-153 85 0
-153 -5 0
-153 -94 0
-153 -65 0
-153 -67 0
-153 8 0
-153 -92 0
-153 26 0
153 -57 -99 -85 5 94 65 67 -8 92 -26 0
-154 -55 0
-154 -28 0
-154 -30 0
-154 -46 0
-154 -17 0
-154 95 0
-154 -33 0
-154 70 0
-154 82 0
-154 -43 0
154 55 28 30 46 17 -95 33 -70 -82 43 0
-155 -90 0
-155 15 0
-155 -48 0
-155 60 0
-155 16 0
-155 -41 0
-155 -89 0
-155 43 0
-155 -49 0
-155 -66 0
155 90 -15 48 -60 -16 41 89 -43 49 66 0
-156 76 0
-156 -15 0
-156 88 0
-156 -86 0
-156 -4 0
-156 71 0
-156 53 0
-156 41 0
-156 34 0
-156 -56 0
156 -76 15 -88 86 4 -71 -53 -41 -34 56 0
-157 77 0
-157 94 0
-157 -68 0
-157 -58 0
-157 -92 0
-157 -80 0
-157 -98 0
-157 -4 0
-157 24 0
-157 -70 0
157 -77 -94 68 58 92 80 98 4 -24 70 0
-158 95 0
-158 -42 0
-158 6 0
-158 89 0
-158 58 0
-158 -48 0
-158 -34 0
-158 46 0
-158 62 0
-158 -2 0
158 -95 42 -6 -89 -58 48 34 -46 -62 2 0
-159 61 0
-159 23 0
-159 56 0
-159 -99 0
-159 -14 0
-159 30 0
-159 49 0
-159 28 0
-159 -59 0
-159 6 0
159 -61 -23 -56 99 14 -30 -49 -28 59 -6 0
-160 -99 0
-160 96 0
-160 10 0
-160 75 0
-160 19 0
-160 94 0
-160 -47 0
-160 24 0
-160 49 0
-160 -44 0
160 99 -96 -10 -75 -19 -94 47 -24 -49 44 0
151 152 153 154 155 156 157 158 159 160 0
-161 -95 0
-161 -12 0
-161 76 0
-161 -2 0
-161 -47 0
-161 43 0
-161 25 0
-161 -63 0
-161 -62 0
-161 23 0
161 95 12 -76 2 47 -43 -25 63 62 -23 0
-162 14 0
-162 98 0
-162 60 0
-162 -46 0
-162 42 0
-162 -56 0
-162 -41 0
-162 -88 0
-162 38 0
-162 29 0
162 -14 -98 -60 46 -42 56 41 88 -38 -29 0
-163 73 0
-163 -93 0
-163 98 0
-163 44 0
-163 -78 0
-163 -48 0
-163 41 0
-163 50 0
-163 -82 0
-163 -39 0
163 -73 93 -98 -44 78 48 -41 -50 82 39 0
-164 -18 0
-164 22 0
-164 -59 0
-164 -62 0
-164 69 0
-164 55 0
-164 -32 0
-164 15 0
-164 86 0
-164 43 0
164 18 -22 59 62 -69 -55 32 -15 -86 -43 0
-165 43 0
-165 -56 0
-165 7 0
-165 -52 0
-165 -51 0
-165 30 0
-165 36 0
-165 -63 0
-165 81 0
-165 2 0
165 -43 56 -7 52 51 -30 -36 63 -81 -2 0
-166 -4 0
-166 99 0
-166 88 0
-166 75 0
-166 -34 0
-166 56 0
-166 -31 0
-166 -77 0
-166 -6 0
-166 10 0
166 4 -99 -88 -75 34 -56 31 77 6 -10 0
-167 -19 0
-167 -62 0
-167 35 0
-167 36 0
-167 -67 0
-167 60 0
-167 12 0
-167 -83 0
-167 -73 0
-167 87 0
167 19 62 -35 -36 67 -60 -12 83 73 -87 0
-168 46 0
-168 75 0
-168 -68 0
-168 -66 0
-168 61 0
-168 58 0
-168 -90 0
-168 51 0
-168 -100 0
-168 -41 0
168 -46 -75 68 66 -61 -58 90 -51 100 41 0
-169 28 0
-169 64 0
-169 -15 0
-169 -72 0
-169 27 0
-169 -22 0
-169 -8 0
-169 87 0
-169 -83 0
-169 -75 0
169 -28 -64 15 72 -27 22 8 -87 83 75 0
-170 -65 0
-170 40 0
-170 -43 0
-170 -97 0
-170 2 0
-170 -14 0
-170 34 0
-170 -67 0
-170 45 0
-170 21 0
170 65 -40 43 97 -2 14 -34 67 -45 -21 0
161 162 163 164 165 166 167 168 169 170 0
-171 -69 0
-171 -16 0
-171 -61 0
-171 -67 0
-171 77 0
-171 46 0
-171 52 0
-171 44 0
-171 60 0
-171 56 0
171 69 16 61 67 -77 -46 -52 -44 -60 -56 0
-172 -59 0
-172 -81 0
-172 -62 0
-172 -60 0
-172 74 0
-172 -79 0
-172 72 0
-172 -67 0
-172 35 0
-172 13 0
172 59 81 62 60 -74 79 -72 67 -35 -13 0
-173 -78 0
-173 -89 0
-173 71 0
-173 -63 0
-173 16 0
-173 99 0
-173 77 0
-173 -45 0
-173 83 0
-173 -10 0
173 78 89 -71 63 -16 -99 -77 45 -83 10 0
-174 -79 0
-174 54 0
-174 86 0
-174 -71 0
-174 -62 0
-174 -34 0
-174 -46 0
-174 66 0
-174 88 0
-174 10 0
174 79 -54 -86 71 62 34 46 -66 -88 -10 0
-175 -4 0
-175 -40 0
-175 5 0
-175 73 0
-175 52 0
-175 15 0
-175 -48 0
-175 2 0
-175 -34 0
-175 78 0
175 4 40 -5 -73 -52 -15 48 -2 34 -78 0
-176 56 0
-176 -2 0
-176 -5 0
-176 -67 0
-176 -58 0
-176 53 0
-176 -48 0
-176 8 0
-176 -71 0
-176 -69 0
176 -56 2 5 67 58 -53 48 -8 71 69 0
-177 2 0
-177 -67 0
-177 44 0
-177 68 0
-177 -15 0
-177 -66 0
-177 99 0
-177 29 0
-177 -51 0
-177 -62 0
177 -2 67 -44 -68 15 66 -99 -29 51 62 0
-178 73 0
-178 -31 0
-178 -16 0
-178 41 0
-178 100 0
-178 91 0
-178 93 0
-178 62 0
-178 -80 0
-178 -24 0
178 -73 31 16 -41 -100 -91 -93 -62 80 24 0
-179 2 0
-179 -86 0
-179 35 0
-179 90 0
-179 -68 0
-179 -82 0
-179 94 0
-179 -9 0
-179 -76 0
-179 60 0
179 -2 86 -35 -90 68 82 -94 9 76 -60 0
-180 -51 0
-180 -33 0
-180 -25 0
-180 -72 0
-180 99 0
-180 49 0
-180 32 0
-180 22 0
-180 -67 0
-180 89 0
180 51 33 25 72 -99 -49 -32 -22 67 -89 0
171 172 173 174 175 176 177 178 179 180 0
-181 -61 0
-181 -53 0
-181 78 0
-181 21 0
-181 62 0
-181 82 0
-181 -29 0
-181 -64 0
-181 -31 0
-181 70 0
181 61 53 -78 -21 -62 -82 29 64 31 -70 0
-182 -88 0
-182 33 0
-182 -62 0
-182 -16 0
-182 -78 0
-182 -54 0
-182 86 0
-182 18 0
-182 27 0
-182 -9 0
182 88 -33 62 16 78 54 -86 -18 -27 9 0
-183 35 0
-183 -4 0
-183 -58 0
-183 100 0
-183 23 0
-183 78 0
-183 47 0
-183 -93 0
-183 -85 0
-183 -11 0
183 -35 4 58 -100 -23 -78 -47 93 85 11 0
-184 4 0
-184 65 0
-184 90 0
-184 -98 0
-184 -46 0
-184 91 0
-184 -74 0
-184 -28 0
-184 -83 0
-184 -71 0
184 -4 -65 -90 98 46 -91 74 28 83 71 0
-185 9 0
-185 -7 0
-185 66 0
-185 88 0
-185 92 0
-185 -86 0
-185 68 0
-185 36 0
-185 87 0
-185 12 0
185 -9 7 -66 -88 -92 86 -68 -36 -87 -12 0
-186 -11 0
-186 48 0
-186 -25 0
-186 51 0
-186 23 0
-186 -87 0
-186 85 0
-186 47 0
-186 18 0
-186 -74 0
186 11 -48 25 -51 -23 87 -85 -47 -18 74 0
-187 -33 0
-187 59 0
-187 -13 0
-187 94 0
-187 55 0
-187 28 0
-187 63 0
-187 -67 0
-187 66 0
-187 10 0
187 33 -59 13 -94 -55 -28 -63 67 -66 -10 0
-188 -30 0
-188 45 0
-188 -47 0
-188 80 0
-188 59 0
-188 54 0
-188 38 0
-188 24 0
-188 -40 0
-188 84 0
188 30 -45 47 -80 -59 -54 -38 -24 40 -84 0
-189 -83 0
-189 90 0
-189 85 0
-189 58 0
-189 27 0
-189 -52 0
-189 45 0
-189 -12 0
-189 -75 0
-189 -32 0
189 83 -90 -85 -58 -27 52 -45 12 75 32 0
-190 91 0
-190 -57 0
-190 -37 0
-190 47 0
-190 72 0
-190 -82 0
-190 35 0
-190 -74 0
-190 -45 0
-190 -78 0
190 -91 57 37 -47 -72 82 -35 74 45 78 0
181 182 183 184 185 186 187 188 189 190 0
-191 -37 0
-191 21 0
-191 59 0
-191 98 0
-191 100 0
-191 -61 0
-191 72 0
-191 25 0
-191 -83 0
-191 -45 0
191 37 -21 -59 -98 -100 61 -72 -25 83 45 0
-192 59 0
-192 -78 0
-192 19 0
-192 74 0
-192 89 0
-192 2 0
-192 32 0
-192 -95 0
-192 -24 0
-192 -83 0
192 -59 78 -19 -74 -89 -2 -32 95 24 83 0
-193 14 0
-193 36 0
-193 -91 0
-193 35 0
-193 22 0
-193 10 0
-193 27 0
-193 -87 0
-193 60 0
-193 34 0
193 -14 -36 91 -35 -22 -10 -27 87 -60 -34 0
-194 50 0
-194 78 0
-194 -23 0
-194 -33 0
-194 52 0
-194 -57 0
-194 30 0
-194 -98 0
-194 56 0
-194 -46 0
194 -50 -78 23 33 -52 57 -30 98 -56 46 0
-195 -35 0
-195 13 0
-195 57 0
-195 63 0
-195 84 0
-195 92 0
-195 -46 0
-195 71 0
-195 72 0
-195 -42 0
195 35 -13 -57 -63 -84 -92 46 -71 -72 42 0
-196 76 0
-196 -77 0
-196 32 0
-196 45 0
-196 88 0
-196 -21 0
-196 -72 0
-196 29 0
-196 24 0
-196 16 0
196 -76 77 -32 -45 -88 21 72 -29 -24 -16 0
-197 -45 0
-197 -80 0
-197 -4 0
-197 -60 0
-197 -2 0
-197 -66 0
-197 -55 0
-197 -46 0
-197 -92 0
-197 68 0
197 45 80 4 60 2 66 55 46 92 -68 0
-198 17 0
-198 30 0
-198 -84 0
-198 -74 0
-198 44 0
-198 -60 0
-198 97 0
-198 -63 0
-198 -73 0
-198 82 0
198 -17 -30 84 74 -44 60 -97 63 73 -82 0
-199 -48 0
-199 -45 0
-199 -1 0
-199 86 0
-199 58 0
-199 -71 0
-199 -31 0
-199 -38 0
-199 94 0
-199 89 0
199 48 45 1 -86 -58 71 31 38 -94 -89 0
-200 -90 0
-200 -51 0
-200 49 0
-200 -60 0
-200 76 0
-200 -41 0
-200 -56 0
-200 -100 0
-200 -67 0
-200 19 0
200 90 51 -49 60 -76 41 56 100 67 -19 0
191 192 193 194 195 196 197 198 199 200 0
